CMD:
./solvers/bin/cadical --plain --no-reduce -t 1600 ./data/cnfs//6s134/6s134.91.cnf

c --- [ banner ] -------------------------------------------------------------
c 
c CaDiCaL SAT Solver
c Copyright (c) 2016-2024
c A. Biere, M. Fleury, N. Froleyks, K. Fazekas, F. Pollitt, T. Faller
c JKU Linz, University of Freiburg, TU Wien
c 
c Version 2.1.3 5296d3d2a9bf48c154ab2acb5e44625776d821bf
c g++ (Gentoo 12.3.1_p20230526 p2) 12.3.1 20230526 -Wall -Wextra -O3 -DNDEBUG
c Sat Aug 9 07:26:21 PDT 2025 Linux cedar2.int.cedar.computecanada.ca 5.14.0-362.24.2.el9_3.x86_64 x86_64
c 
c --- [ limit ] --------------------------------------------------------------
c 
c setting time limit to 1600 seconds real time (due to '-t 1600')
c 
c --- [ parsing input ] ------------------------------------------------------
c 
c reading DIMACS file from './data/cnfs//6s134/6s134.91.cnf'
c opening file to read './data/cnfs//6s134/6s134.91.cnf'
c found 'p cnf 197635 581551' header
c parsed 581551 clauses in 0.10 seconds process time
c 
c --- [ options ] ------------------------------------------------------------
c 
c   --compact=false                (different from default 'true')
c   --decompose=false              (different from default 'true')
c   --deduplicate=false            (different from default 'true')
c   --elim=false                   (different from default 'true')
c   --probe=false                  (different from default 'true')
c   --reduce=false                 (different from default 'true')
c   --subsume=false                (different from default 'true')
c   --ternary=false                (different from default 'true')
c   --transred=false               (different from default 'true')
c   --vivify=false                 (different from default 'true')
c 
c --- [ solving ] ------------------------------------------------------------
c 
c time measured in process time since initialization
c 
c  seconds  reductions  redundant  irredundant
c         MB    restarts       trail       variables
c          level   conflicts       glue         remaining
c 
c *  0.10 74  0 0   0    0    0  0% 0 378305 90910 46%
c {  0.16 75  0 0   0    0    0  0% 0 378305 90910 46%
c i  1.08 76 19 0  65  740  603 69% 5 378305 90908 46%
c }  1.41 76 19 0  97 1002  843 70% 6 378305 90908 46%
c [  1.41 76  0 0  97 1002  843  0% 0 378305 90908 46%
c O  1.44 76 1386 0  97 1003  844 93% 6 378305 90908 46%
c i  1.57 76 66 0  97 1334 1148 80% 7 378305 90847 46%
c ]  3.22 76 27 0  98 3004 2559 74% 7 378305 90847 46%
c {  3.22 76 19 0  98 3004 2559 70% 6 378305 90847 46%
c F  3.22 76 19 0  99 3005 2560 70% 6 378305 90847 46%
c i  4.05 76 16 0 136 3665 3079 69% 5 378305 90846 46%
c i  4.32 77 14 0 137 4053 3349 68% 5 378305 90420 46%
c i  4.32 77 14 0 137 4054 3349 68% 5 378305 89088 45%
c i  4.70 77 14 0 166 4371 3590 68% 5 378305 88526 45%
c i  5.57 77 12 0 205 5324 4263 68% 5 378305 88163 45%
c i  5.95 77 11 0 206 5675 4469 68% 5 378305 84023 43%
c i  5.97 77 11 0 206 5690 4475 68% 5 378305 84020 43%
c i  5.99 77 11 0 206 5718 4500 68% 5 378305 83682 42%
c i  6.00 77 11 0 206 5724 4504 68% 5 378305 83416 42%
c }  6.00 77 11 0 206 5728 4505 68% 5 378305 70851 36%
c 
c  seconds  reductions  redundant  irredundant
c         MB    restarts       trail       variables
c          level   conflicts       glue         remaining
c 
c 0  6.00 77 11 0 206 5728 4505 68% 5 378305 70851 36%
c 
c --- [ result ] -------------------------------------------------------------
c 
s UNSATISFIABLE
c 
c --- [ run-time profiling ] -------------------------------------------------
c 
c process time taken by individual solving procedures
c (percentage relative to process time for solving)
c 
c         5.90  100.00% search
c         4.03   68.32% unstable
c         1.81   30.70% stable
c         0.10    1.69% parse
c         0.06    0.98% lucky
c         0.00    0.00% simplify
c   =================================
c         5.90   98.33% solve
c 
c last line shows process time for solving
c (percentage relative to total process time)
c 
c --- [ statistics ] ---------------------------------------------------------
c 
c chronological:              1378        24.06 %  of conflicts
c conflicts:                  5728       970.36    per second
c decisions:                 11547      1956.13    per second
c fixed:                    126784        64.15 %  of all variables
c learned:                    5475        95.58 %  per conflict
c learned_lits:             133920       100.00 %  learned literals
c minimized:                     0         0.00 %  learned literals
c shrunken:                  39161        29.24 %  learned literals
c minishrunken:              23198        17.32 %  learned literals
c otfs:                         14         0.24 %  of conflict
c propagations:           45852328         7.77 M  per second
c rephased:                      2      2864.00    interval
c restarts:                    206        27.81    interval
c stabilizing:                   1        34.95 %  of conflicts
c subsumed:                    958         0.25 %  of all clauses
c strengthened:                 14         0.00 %  of all clauses
c 
c seconds are measured in process time for solving
c 
c --- [ resources ] ----------------------------------------------------------
c 
c total process time since initialization:         6.00    seconds
c total real time since initialization:            6.06    seconds
c maximum resident set size of process:           75.10    MB
c 
c --- [ shutting down ] ------------------------------------------------------
c 
c exit 20
